data/benchmarks/bayes/75-10-6-q.cnf
p cnf 460 449
c weights 0.992077 0.007923000000000013 1 1 1 1 1 1 1 1 1 1 1 1 1 1 1 1 1 1 1 1 1 1 1 1 1 1 1 1 1 1 1 1 1 1 1 1 1 1 1 1 1 1 1 1 1 1 1 1 1 1 1 1 1 1 1 1 1 1 1 1 1 1 1 1 1 1 1 1 1 1 1 1 1 1 1 1 1 1 1 1 1 1 1 1 1 1 1 1 1 1 1 1 1 1 1 1 1 1 1 1 1 1 1 1 1 1 1 1 1 1 1 1 1 1 1 1 1 1 1 1 1 1 1 1 1 1 1 1 1 1 1 1 1 1 1 1 1 1 1 1 1 1 1 1 1 1 1 1 1 1 1 1 1 1 1 1 1 1 1 1 1 1 1 1 1 1 1 1 1 1 1 1 1 1 1 1 1 1 1 1 1 1 1 1 1 1 1 1 1 1 1 1 1 1 1 1 1 1 0.917429 0.08257099999999995 0.189309 0.810691 0.5 0.5 0.5 0.5 0.5 0.5 0.5 0.5 0.5 0.5 0.5 0.5 0.5 0.5 0.5 0.5 0.429313 0.5706869999999999 0.899501 0.100499 0.5 0.5 0.5 0.5 0.773651 0.22634900000000002 0.0459762 0.9540238 0.5 0.5 0.5 0.5 0.750811 0.249189 0.843887 0.15611299999999995 0.5 0.5 0.5 0.5 0.5 0.5 0.5 0.5 0.191844 0.808156 0.100071 0.899929 0.818113 0.18188700000000002 0.381154 0.618846 0.5 0.5 0.5 0.5 0.5 0.5 0.5 0.5 0.5 0.5 0.5 0.5 0.5 0.5 0.5 0.5 0.903182 0.09681799999999996 0.321401 0.678599 0.765104 0.234896 0.676834 0.32316599999999995 0.5 0.5 0.5 0.5 0.5 0.5 0.5 0.5 0.5 0.5 0.5 0.5 0.5 0.5 0.5 0.5 0.5 0.5 0.5 0.5 0.5 0.5 0.5 0.5 0.5 0.5 0.5 0.5 0.5 0.5 0.5 0.5 0.5 0.5 0.5 0.5 0.5 0.5 0.5 0.5 0.5 0.5 0.5 0.5 0.12449 0.87551 0.145584 0.8544160000000001 0.664459 0.335541 0.491867 0.508133 0.328115 0.6718850000000001 0.74129 0.25871 0.532369 0.467631 0.835658 0.164342 0.5 0.5 0.5 0.5 0.5 0.5 0.5 0.5 0.5 0.5 0.5 0.5 0.5 0.5 0.5 0.5 0.5 0.5 0.5 0.5 0.5 0.5 0.5 0.5 0.5 0.5 0.5 0.5 0.5 0.5 0.5 0.5 0.766023 0.233977 0.582159 0.417841 0.941262 0.05873799999999996 0.430482 0.569518 0.5 0.5 0.5 0.5 0.5 0.5 0.5 0.5 0.5 0.5 0.5 0.5 0.822578 0.17742199999999997 0.263223 0.736777 0.63443 0.36556999999999995 0.344253 0.6557470000000001 0.5 0.5 0.5 0.5 0.5 0.5 0.5 0.5 0.5 0.5 0.5 0.5 0.5 0.5 0.5 0.5 0.5 0.5 0.5 0.5 0.5 0.5 0.5 0.5 0.5 0.5 0.5 0.5 0.5 0.5 0.5 0.5 0.5 0.5 0.5 0.5 0.5 0.5 0.5 0.5 0.5 0.5 0.5 0.5 0.5 0.5 0.5 0.5 0.5 0.5 0.5 0.5 0.5 0.5 0.5 0.5 0.5 0.5 0.5 0.5 0.5 0.5 0.5 0.5 0.543319 0.456681 0.381813 0.618187 0.990449 0.009550999999999976 0.775687 0.22431299999999998 0.385222 0.614778 0.378842 0.621158 0.5 0.5 0.5 0.5 0.5 0.5 0.5 0.5 0.5 0.5 0.5 0.5 0.5 0.5 0.5 0.5 0.366799 0.633201 0.70402 0.29598 0.351058 0.648942 0.303202 0.696798 0.5 0.5 0.5 0.5 0.5 0.5 0.5 0.5 0.572925 0.427075 0.758544 0.241456 0.559307 0.440693 0.116244 0.883756 0.5 0.5 0.5 0.5 0.5 0.5 0.5 0.5 0.5 0.5 0.5 0.5 0.5 0.5 0.5 0.5 0.5 0.5 0.5 0.5 0.5 0.5 0.5 0.5 0.5 0.5 0.5 0.5 0.123281 0.876719 0.972548 0.027452000000000032 0.297534 0.702466 0.148728 0.851272 0.5 0.5 0.5 0.5 0.5 0.5 0.5 0.5 0.5 0.5 0.5 0.5 0.5 0.5 0.5 0.5 0.5 0.5 0.5 0.5 0.5 0.5 0.5 0.5 0.5 0.5 0.5 0.5 0.5 0.5 0.5 0.5 0.16659 0.83341 0.315124 0.684876 0.456422 0.543578 0.585851 0.414149 0.450754 0.549246 0.709133 0.290867 0.909162 0.09083799999999997 0.748288 0.25171200000000005 0.981781 0.018218999999999985 0.641708 0.35829200000000005 0.687648 0.31235199999999996 0.0589821 0.9410179 0.5 0.5 0.5 0.5 0.5 0.5 0.5 0.5 0.172056 0.827944 0.234965 0.765035 0.490986 0.5090140000000001 0.34615 0.65385 0.171208 0.828792 0.598914 0.40108600000000005 0.5 0.5 0.5 0.5 0.5 0.5 0.5 0.5 0.5 0.5 0.5 0.5 0.5 0.5 0.5 0.5 0.5 0.5 0.5 0.5 0.5 0.5 0.5 0.5 0.5 0.5 0.5 0.5 0.5 0.5 0.5 0.5 0.5 0.5 0.5 0.5 0.5 0.5 0.5 0.5 0.5 0.5 0.5 0.5 0.5 0.5 0.5 0.5 0.5 0.5 0.5 0.5 0.5 0.5 0.5 0.5 0.5 0.5 0.5 0.5 0.5 0.5 0.5 0.5 0.975699 0.024301000000000017 0.0429431 0.9570569 0.5 0.5 0.5 0.5 0.5 0.5 0.5 0.5 0.5 0.5 0.5 0.5 0.5 0.5 0.5 0.5 0.221095 0.778905 0.583801 0.416199 0.47642 0.5235799999999999 0.171395 0.828605 0.5 0.5 0.5 0.5 0.5 0.5 0.5 0.5 0.5 0.5 0.5 0.5 0.5 0.5 0.5 0.5 0.5 0.5 0.5 0.5 0.5 0.5 0.5 0.5 0.5 0.5 0.5 0.5 0.5 0.5 0.5 0.5 0.608716 0.39128399999999997 0.989812 0.010187999999999975 0.436629 0.5633710000000001 0.876314 0.12368599999999996 0.657724 0.342276 0.460115 0.539885 0.37626 0.62374 0.829119 0.17088099999999995 0.0340099 0.9659901 0.229335 0.7706649999999999 0.5 0.5 0.5 0.5 0.5 0.5 0.5 0.5 0.5 0.5 0.5 0.5 0.5 0.5 0.5 0.5 0.5 0.5 0.5 0.5 0.5 0.5 0.5 0.5 0.5 0.5 0.5 0.5 0.5 0.5 0.5 0.5 0.5 0.5 0.5 0.5 0.5 0.5 0.5 0.5 0.5 0.5 0.5 0.5 0.5 0.5 0.5 0.5 0.5 0.5 0.5 0.5 0.5 0.5 0.5 0.5 0.5 0.5 0.5 0.5 0.5 0.5 0.5 0.5 0.5 0.5 0.5 0.5 0.5 0.5 0.5 0.5 0.5 0.5 0.5 0.5 0.5 0.5 0.5 0.5 0.5 0.5 0.5 0.5 0.5 0.5 0.5 0.5 0.5 0.5 0.5 0.5 0.5 0.5 0.5 0.5 0.5 0.5 0.5 0.5 0.5 0.5 0.5 0.5 0.5 0.5 0.5 0.5 0.5 0.5 0.5 0.5 0.5 0.5 0.5 0.5 0.269242 0.730758 0.878786 0.12121400000000004 0.763072 0.23692800000000003 0.622001 0.377999 0.5 0.5 0.5 0.5 0.5 0.5 0.5 0.5 0.5 0.5 0.5 0.5 0.5 0.5 0.5 0.5 0.5 0.5 0.5 0.5 0.5 0.5 0.5 0.5
-1 -101 2 0
-1 101 -2 0
1 -102 2 0
1 102 -2 0
-2 3 0
2 -3 0
-3 4 0
3 -4 0
-4 5 0
4 -5 0
-5 6 0
5 -6 0
-6 -111 7 0
-6 111 -7 0
6 -112 7 0
6 112 -7 0
-7 8 0
7 -8 0
-8 -115 9 0
-8 115 -9 0
8 -116 9 0
8 116 -9 0
-9 -10 0
9 10 0
-1 -119 11 0
-1 119 -11 0
1 -120 11 0
1 120 -11 0
-11 -2 -12 0
-11 2 -12 0
11 -2 12 0
11 2 -12 0
-12 -3 -125 13 0
-12 -3 125 -13 0
-12 3 -126 13 0
-12 3 126 -13 0
12 -3 -127 13 0
12 -3 127 -13 0
12 3 -128 13 0
12 3 128 -13 0
-13 -4 14 0
-13 4 -14 0
13 -4 14 0
13 4 -14 0
-14 -5 -15 0
-14 5 15 0
14 -5 -15 0
14 5 15 0
-15 -6 -137 16 0
-15 -6 137 -16 0
-15 6 -138 16 0
-15 6 138 -16 0
15 -6 -139 16 0
15 -6 139 -16 0
15 6 -140 16 0
15 6 140 -16 0
-16 -7 17 0
-16 7 -17 0
16 -7 17 0
16 7 17 0
-17 -8 -18 0
-17 8 18 0
17 -8 -18 0
17 8 18 0
-18 -9 -19 0
-18 9 -19 0
18 -9 19 0
18 9 -19 0
-19 -10 20 0
-19 10 20 0
19 -10 -20 0
19 10 20 0
-11 21 0
11 -21 0
-21 -12 22 0
-21 12 22 0
21 -12 -22 0
21 12 -22 0
-22 -13 -163 23 0
-22 -13 163 -23 0
-22 13 -164 23 0
-22 13 164 -23 0
22 -13 -165 23 0
22 -13 165 -23 0
22 13 -166 23 0
22 13 166 -23 0
-23 -14 -167 24 0
-23 -14 167 -24 0
-23 14 -168 24 0
-23 14 168 -24 0
23 -14 -169 24 0
23 -14 169 -24 0
23 14 -170 24 0
23 14 170 -24 0
-24 -15 25 0
-24 15 -25 0
24 -15 25 0
24 15 25 0
-25 -16 26 0
-25 16 -26 0
25 -16 -26 0
25 16 26 0
-26 -17 27 0
-26 17 27 0
26 -17 -27 0
26 17 27 0
-27 -18 28 0
-27 18 28 0
27 -18 -28 0
27 18 28 0
-28 -19 -187 29 0
-28 -19 187 -29 0
-28 19 -188 29 0
-28 19 188 -29 0
28 -19 -189 29 0
28 -19 189 -29 0
28 19 -190 29 0
28 19 190 -29 0
-29 -20 -30 0
-29 20 30 0
29 -20 -30 0
29 20 30 0
-21 -31 0
21 31 0
-31 -22 -197 32 0
-31 -22 197 -32 0
-31 22 -198 32 0
-31 22 198 -32 0
31 -22 -199 32 0
31 -22 199 -32 0
31 22 -200 32 0
31 22 200 -32 0
-32 -23 33 0
-32 23 33 0
32 -23 -33 0
32 23 33 0
-33 -24 34 0
-33 24 34 0
33 -24 -34 0
33 24 -34 0
-34 -25 35 0
-34 25 -35 0
34 -25 -35 0
34 25 -35 0
-35 -26 36 0
-35 26 -36 0
35 -26 -36 0
35 26 -36 0
-36 -27 -37 0
-36 27 37 0
36 -27 -37 0
36 27 -37 0
-37 -28 38 0
-37 28 38 0
37 -28 38 0
37 28 -38 0
-38 -29 39 0
-38 29 39 0
38 -29 -39 0
38 29 -39 0
-39 -30 40 0
-39 30 40 0
39 -30 -40 0
39 30 40 0
-31 -233 41 0
-31 233 -41 0
31 -234 41 0
31 234 -41 0
-41 -32 -235 42 0
-41 -32 235 -42 0
-41 32 -236 42 0
-41 32 236 -42 0
41 -32 -237 42 0
41 -32 237 -42 0
41 32 -238 42 0
41 32 238 -42 0
-42 -33 43 0
-42 33 43 0
42 -33 -43 0
42 33 -43 0
-43 -34 44 0
-43 34 -44 0
43 -34 -44 0
43 34 -44 0
-44 -35 -247 45 0
-44 -35 247 -45 0
-44 35 -248 45 0
-44 35 248 -45 0
44 -35 -249 45 0
44 -35 249 -45 0
44 35 -250 45 0
44 35 250 -45 0
-45 -36 -46 0
-45 36 46 0
45 -36 -46 0
45 36 46 0
-46 -37 -255 47 0
-46 -37 255 -47 0
-46 37 -256 47 0
-46 37 256 -47 0
46 -37 -257 47 0
46 -37 257 -47 0
46 37 -258 47 0
46 37 258 -47 0
-47 -38 -48 0
-47 38 -48 0
47 -38 48 0
47 38 48 0
-48 -39 -49 0
-48 39 49 0
48 -39 -49 0
48 39 49 0
-49 -40 50 0
-49 40 -50 0
49 -40 50 0
49 40 50 0
-41 51 0
41 -51 0
-51 -42 -273 52 0
-51 -42 273 -52 0
-51 42 -274 52 0
-51 42 274 -52 0
51 -42 -275 52 0
51 -42 275 -52 0
51 42 -276 52 0
51 42 276 -52 0
-52 -43 53 0
-52 43 -53 0
52 -43 53 0
52 43 -53 0
-53 -44 -54 0
-53 44 54 0
53 -44 -54 0
53 44 -54 0
-54 -45 55 0
-54 45 -55 0
54 -45 -55 0
54 45 -55 0
-55 -46 56 0
-55 46 56 0
55 -46 56 0
55 46 -56 0
-56 -47 -293 57 0
-56 -47 293 -57 0
-56 47 -294 57 0
-56 47 294 -57 0
56 -47 -295 57 0
56 -47 295 -57 0
56 47 -296 57 0
56 47 296 -57 0
-57 -48 -297 58 0
-57 -48 297 -58 0
-57 48 -298 58 0
-57 48 298 -58 0
57 -48 -299 58 0
57 -48 299 -58 0
57 48 -300 58 0
57 48 300 -58 0
-58 -49 -301 59 0
-58 -49 301 -59 0
-58 49 -302 59 0
-58 49 302 -59 0
58 -49 -303 59 0
58 -49 303 -59 0
58 49 -304 59 0
58 49 304 -59 0
-59 -50 60 0
-59 50 60 0
59 -50 -60 0
59 50 60 0
-51 -309 61 0
-51 309 -61 0
51 -310 61 0
51 310 -61 0
-61 -52 -311 62 0
-61 -52 311 -62 0
-61 52 -312 62 0
-61 52 312 -62 0
61 -52 -313 62 0
61 -52 313 -62 0
61 52 -314 62 0
61 52 314 -62 0
-62 -53 -63 0
-62 53 63 0
62 -53 -63 0
62 53 63 0
-63 -54 64 0
-63 54 64 0
63 -54 64 0
63 54 -64 0
-64 -55 -65 0
-64 55 -65 0
64 -55 -65 0
64 55 65 0
-65 -56 -66 0
-65 56 -66 0
65 -56 66 0
65 56 66 0
-66 -57 67 0
-66 57 -67 0
66 -57 67 0
66 57 67 0
-67 -58 -68 0
-67 58 -68 0
67 -58 68 0
67 58 -68 0
-68 -59 69 0
-68 59 -69 0
68 -59 69 0
68 59 -69 0
-69 -60 70 0
-69 60 70 0
69 -60 -70 0
69 60 -70 0
-61 -347 71 0
-61 347 -71 0
61 -348 71 0
61 348 -71 0
-71 -62 72 0
-71 62 72 0
71 -62 -72 0
71 62 72 0
-72 -63 73 0
-72 63 73 0
72 -63 -73 0
72 63 73 0
-73 -64 -357 74 0
-73 -64 357 -74 0
-73 64 -358 74 0
-73 64 358 -74 0
73 -64 -359 74 0
73 -64 359 -74 0
73 64 -360 74 0
73 64 360 -74 0
-74 -65 -75 0
-74 65 -75 0
74 -65 75 0
74 65 -75 0
-75 -66 -76 0
-75 66 -76 0
75 -66 76 0
75 66 76 0
-76 -67 77 0
-76 67 77 0
76 -67 77 0
76 67 -77 0
-77 -68 -78 0
-77 68 78 0
77 -68 -78 0
77 68 78 0
-78 -69 -377 79 0
-78 -69 377 -79 0
-78 69 -378 79 0
-78 69 378 -79 0
78 -69 -379 79 0
78 -69 379 -79 0
78 69 -380 79 0
78 69 380 -79 0
-79 -70 -381 80 0
-79 -70 381 -80 0
-79 70 -382 80 0
-79 70 382 -80 0
79 -70 -383 80 0
79 -70 383 -80 0
79 70 -384 80 0
79 70 384 -80 0
-71 -385 81 0
-71 385 -81 0
71 -386 81 0
71 386 -81 0
-81 -72 82 0
-81 72 82 0
81 -72 82 0
81 72 -82 0
-82 -73 83 0
-82 73 83 0
82 -73 83 0
82 73 -83 0
-83 -74 -84 0
-83 74 84 0
83 -74 84 0
83 74 84 0
-84 -75 -85 0
-84 75 -85 0
84 -75 85 0
84 75 -85 0
-85 -76 -86 0
-85 76 86 0
85 -76 -86 0
85 76 -86 0
-86 -77 -87 0
-86 77 -87 0
86 -77 87 0
86 77 87 0
-87 -78 -88 0
-87 78 88 0
87 -78 88 0
87 78 -88 0
-88 -79 -89 0
-88 79 89 0
88 -79 -89 0
88 79 89 0
-89 -80 90 0
-89 80 -90 0
89 -80 90 0
89 80 90 0
-81 91 0
81 -91 0
-91 -82 -92 0
-91 82 92 0
91 -82 92 0
91 82 92 0
-92 -83 93 0
-92 83 93 0
92 -83 -93 0
92 83 -93 0
-93 -84 -94 0
-93 84 94 0
93 -84 -94 0
93 84 -94 0
-94 -85 95 0
-94 85 95 0
94 -85 -95 0
94 85 95 0
-95 -86 -96 0
-95 86 96 0
95 -86 96 0
95 86 -96 0
-96 -87 -445 97 0
-96 -87 445 -97 0
-96 87 -446 97 0
-96 87 446 -97 0
96 -87 -447 97 0
96 -87 447 -97 0
96 87 -448 97 0
96 87 448 -97 0
-97 -88 98 0
-97 88 -98 0
97 -88 98 0
97 88 -98 0
-98 -89 99 0
-98 89 -99 0
98 -89 -99 0
98 89 99 0
-99 -90 100 0
-99 90 -100 0
99 -90 100 0
99 90 -100 0
100 0
