data/benchmarks/bayes/75-10-6-q.gr
p tw 460 509
7 17
67 68
99 100
59 302
67 77
8 9
8 18
40 50
22 163
14 168
41 42
73 74
41 51
25 34
73 83
69 378
14 15
28 188
14 24
74 75
74 84
73 357
56 295
15 16
29 189
47 48
15 25
12 127
47 57
59 68
42 235
48 49
48 58
80 90
31 234
32 199
15 137
52 275
81 82
33 42
81 91
8 116
22 23
80 382
84 93
22 32
66 75
46 255
55 56
7 16
55 65
59 301
58 67
40 49
48 300
79 382
62 311
73 82
45 249
32 41
28 187
14 23
51 310
65 74
47 56
47 294
6 15
31 197
3 126
21 22
21 31
24 167
80 89
39 48
32 198
54 55
52 274
96 448
79 377
54 64
11 120
37 258
87 88
87 97
28 29
28 38
88 89
64 360
88 98
29 30
58 304
41 233
61 62
61 71
44 247
2 3
2 12
62 63
94 95
79 381
45 248
3 4
6 140
71 386
35 36
35 45
95 96
51 309
36 37
68 69
68 78
47 293
3 125
58 299
69 70
41 237
13 166
69 79
61 313
96 447
54 63
13 22
62 314
43 44
43 53
87 96
19 190
46 55
76 77
28 37
76 86
64 359
23 169
79 88
31 200
58 303
24 170
78 379
87 446
20 29
70 384
2 11
6 112
79 380
53 62
71 385
6 139
35 44
47 256
9 10
86 95
57 297
9 19
23 164
49 302
68 77
27 36
42 43
58 298
42 52
41 236
13 165
61 312
60 69
44 250
75 76
96 446
75 85
51 276
16 17
16 26
19 189
49 50
49 59
23 168
16 138
42 276
82 83
58 302
82 92
78 378
87 445
22 199
23 24
70 383
71 348
23 33
83 84
6 111
24 25
56 57
56 66
47 255
74 358
57 58
57 296
89 90
89 99
23 163
13 128
49 301
30 40
58 297
31 32
32 235
52 311
35 249
34 43
64 65
5 6
67 76
97 98
57 300
8 17
16 137
42 275
14 167
82 91
9 116
22 198
71 347
97 448
69 377
74 83
56 294
29 188
56 65
15 24
12 126
74 357
57 295
89 98
13 127
48 57
22 166
31 233
63 64
63 73
4 5
4 14
8 115
80 381
22 31
35 248
37 38
73 360
37 47
55 64
1 102
42 238
70 80
1 120
29 39
11 12
48 299
11 21
42 274
15 140
62 72
44 45
44 54
32 238
97 447
3 13
52 314
56 293
46 258
29 187
36 46
96 97
12 125
18 19
18 28
59 304
22 165
32 197
10 20
14 170
52 273
69 380
28 190
11 119
37 257
85 86
73 359
88 97
1 101
42 237
77 78
29 38
77 87
48 298
15 139
62 71
45 247
51 52
97 446
3 12
51 61
46 257
36 45
59 303
69 78
7 112
10 19
25 26
61 348
62 313
25 35
79 384
28 189
43 52
37 256
17 18
17 27
76 85
64 358
47 296
42 236
31 199
3 128
50 60
77 86
24 169
48 297
32 200
83 93
52 276
79 379
6 138
24 34
84 85
84 94
9 18
57 67
58 59
58 68
42 51
41 235
13 164
90 100
61 311
7 111
44 249
31 41
91 92
96 445
75 84
61 347
62 312
51 275
32 33
79 383
45 250
32 42
16 25
64 74
37 255
5 15
19 188
65 66
17 26
65 75
49 58
64 357
23 167
6 7
47 295
6 16
31 198
3 127
58 301
50 59
98 99
24 168
78 377
39 40
70 382
39 49
23 32
83 92
79 378
72 73
6 137
24 33
72 82
57 66
30 39
41 234
13 163
90 99
61 310
87 448
44 248
51 274
64 73
38 39
47 258
5 14
19 187
38 48
57 299
23 166
49 304
71 72
71 81
58 300
41 238
12 13
9 115
22 197
12 22
61 314
70 381
13 14
45 46
13 23
45 55
72 81
81 386
2 102
46 47
78 79
46 56
57 294
78 88
13 126
19 20
23 170
19 29
79 80
16 140
79 89
63 72
78 380
52 53
61 309
20 30
4 13
87 447
52 62
35 247
53 54
51 273
53 63
37 46
85 95
26 27
26 36
47 257
86 87
74 360
38 47
86 96
70 79
57 298
1 119
23 165
27 28
49 303
27 37
42 273
12 21
60 70
44 53
32 237
1 2
52 313
80 384
1 11
93 94
45 54
81 385
2 101
18 27
57 293
78 87
13 125
19 28
22 164
16 139
14 169
22 200
52 61
69 379
73 358
85 94
56 296
29 190
12 128
59 60
26 35
59 69
74 359
92 93
15 138
33 34
33 43
32 236
97 445
80 383
52 312
34 35
66 67
35 250
34 44
66 76
46 256
7 8
